benchmarks/bfuzz0/258504399246621225726158293122173310628.smt2
(set-logic QF_FP)
(declare-const x0 (_ FloatingPoint 11 53))
(declare-const x1 (_ FloatingPoint 11 53))
(declare-const x2 (_ FloatingPoint 11 53))
(declare-const x3 (_ FloatingPoint 11 53))
(declare-const x4 (_ FloatingPoint 11 53))
(declare-const x5 (_ FloatingPoint 11 53))
(declare-const x6 (_ FloatingPoint 11 53))
(declare-const x7 (_ FloatingPoint 11 53))
(declare-const x8 (_ FloatingPoint 11 53))
(declare-const x9 (_ FloatingPoint 11 53))
(assert (fp.geq (fp.div RNE (fp.neg (fp.mul RNE x2 x1)) (fp.sub RNE (fp.sub RNE x2 x4) (fp.div RNE x1 x1))) (fp.mul RNE (fp.div RNE (fp.div RNE x1 x4) (fp.neg x3)) (fp.div RNE (fp.div RNE x5 x8) (fp.div RNE x3 x1)))))
(assert (fp.geq (fp.neg (fp.add RNE (fp.add RNE x6 x1) (fp.div RNE x1 x7))) (fp.add RNE (fp.add RNE (fp.add RNE x2 x4) (fp.neg x6)) (fp.div RNE (fp.add RNE x8 x6) (fp.neg x8)))))
(assert (fp.gt (fp.sub RNE (fp.neg (fp.neg x6)) (fp.sub RNE (fp.add RNE x2 x1) (fp.add RNE x0 x5))) (fp.add RNE (fp.mul RNE (fp.sub RNE x3 x1) (fp.div RNE x6 x8)) (fp.add RNE (fp.add RNE x2 x3) (fp.add RNE x0 x1)))))
(assert (fp.gt (fp.neg (fp.sub RNE (fp.neg x4) (fp.mul RNE x9 x6))) (fp.mul RNE (fp.div RNE (fp.mul RNE x1 x7) (fp.div RNE x7 x2)) (fp.div RNE (fp.div RNE x6 x1) (fp.neg x5)))))
(assert (fp.geq (fp.mul RNE (fp.mul RNE (fp.sub RNE x2 x4) (fp.sub RNE x8 x1)) (fp.div RNE (fp.mul RNE x0 x6) (fp.sub RNE x1 x3))) (fp.add RNE (fp.sub RNE (fp.sub RNE x7 x0) (fp.mul RNE x0 x0)) (fp.sub RNE (fp.sub RNE x7 x8) (fp.div RNE x7 x8)))))
(assert (fp.lt (fp.mul RNE (fp.div RNE (fp.neg x2) (fp.add RNE x0 x4)) (fp.add RNE (fp.mul RNE x5 x4) (fp.div RNE x9 x2))) (fp.sub RNE (fp.neg (fp.mul RNE x9 x6)) (fp.add RNE (fp.add RNE x6 x7) (fp.neg x7)))))
(check-sat)
