db/data/258504399246621225726158293122173310628.z3.out
-------------------
2500.199879522
